76 52 162 61 85 174 4 109 34 167 72 50 44 90 69 62 143 17 13 108 37 20 39 30 93 185 25 199 161 188 186 139 22 68 78 187 26 149 45 48 123 14 159 151 32 179 47 95 119 115 21 107 129 57 23 146 5 125 160 166 111 154 153 189 136 110 55 94 80 148 79 155 70 73 27 183 33 106 195 31 178 163 49 113 144 83 40 1 124 197 156 168 132 7 71 133 112 145 194 2 105 65 122 11 6 176 84 171 103 35 89 150 3 121 127 87 134 15 38 141 137 126 175 104 99 16 152 53 172 64 97 196 138 180 100 29 63 173 82 116 165 117 66 54 170 182 18 42 24 131 67 193 43 128 120 86 118 184 147 101 130 51 142 41 157 88 12 56 96 58 77 114 135 46 102 177 36 181 59 164 92 192 190 75 81 191 9 169 0 91 8 98 10 60 28 198 74 140 158 19 

